% Instancia Pequeñas #1
% Generada el 2025-10-21 19:12:35

num_trabajadores = 6;
horizonte_dias = 7;
num_semanas = 1;

demanda = array2d(1..horizonte_dias, 1..3, [
  4, 3, 2,
  5, 3, 2,
  5, 3, 2,
  4, 3, 2,
  4, 2, 1,
  5, 3, 2,
  4, 3, 3
]);

puntajes = array3d(1..num_trabajadores, 1..horizonte_dias, 1..3, [
  0, 4, 3,
  3, 2, 1,
  10, 8, 1,
  9, 6, 0,
  0, 1, 3,
  3, 8, 9,
  0, 8, 3,
  10, 8, 6,
  3, 7, 9,
  4, 0, 2,
  6, 5, 4,
  2, 3, 5,
  1, 1, 6,
  1, 5, 5,
  9, 4, 0,
  7, 8, 1,
  6, 1, 8,
  4, 10, 9,
  5, 9, 3,
  1, 0, 10,
  3, 4, 1,
  3, 1, 6,
  4, 7, 10,
  5, 2, 5,
  5, 3, 10,
  4, 10, 10,
  1, 9, 10,
  2, 8, 3,
  2, 7, 6,
  4, 10, 8,
  3, 10, 5,
  0, 3, 0,
  5, 6, 4,
  1, 3, 9,
  5, 3, 10,
  7, 6, 10,
  7, 2, 4,
  2, 3, 8,
  8, 4, 9,
  6, 9, 6,
  5, 3, 2,
  8, 7, 1
]);
